data/solutions/recovery/degenerate/intermediate/flexible/degenerate_intermediate_instance31/100.sol
Elapsed time: 100.08
Upper bound: 13332864.0
Planning weighted value: 1.92176683127e+11
C[0]=13332864.0
C[1]=13327265.0
C[2]=13318680.0
C[3]=13307769.0
C[4]=13288667.0
C[5]=13249379.0
C[6]=13242713.0
C[7]=13235547.0
C[8]=13155222.0
C[9]=13150193.0
C[10]=13108496.0
C[11]=13044901.0
C[12]=12913257.0
C[13]=12616247.0
y[0]=0
y[1]=5
y[2]=10
y[3]=4
y[4]=13
y[5]=8
y[6]=6
y[7]=2
y[8]=1
y[9]=5
y[10]=5
y[11]=2
y[12]=3
y[13]=7
y[14]=4
y[15]=10
y[16]=6
y[17]=13
y[18]=7
y[19]=6
y[20]=12
y[21]=1
y[22]=1
y[23]=12
y[24]=4
y[25]=7
y[26]=11
y[27]=12
y[28]=8
y[29]=6
y[30]=11
y[31]=9
y[32]=2
y[33]=6
y[34]=11
y[35]=7
y[36]=6
y[37]=0
y[38]=7
y[39]=8
y[40]=5
y[41]=6
y[42]=9
y[43]=4
y[44]=5
y[45]=13
y[46]=10
y[47]=4
y[48]=4
y[49]=0
y[50]=2
y[51]=12
y[52]=3
y[53]=10
y[54]=4
y[55]=3
y[56]=0
y[57]=12
y[58]=10
y[59]=12
y[60]=9
y[61]=11
y[62]=9
y[63]=9
y[64]=13
y[65]=0
y[66]=10
y[67]=3
y[68]=10
y[69]=11
y[70]=13
y[71]=11
y[72]=11
y[73]=0
y[74]=9
y[75]=1
y[76]=8
y[77]=7
y[78]=12
y[79]=2
