data/solutions/recovery/degenerate/intermediate/flexible/degenerate_intermediate_instance31/100.log

Log started (V12.6.3.0) Sat Apr 21 22:53:16 2018

New value for default parallel thread count: 1

Problem '/tmp/tmp4ev3Nv.pyomo.lp' read.
Read time = 0.02 sec. (1.11 ticks)

Problem name         : /tmp/tmp4ev3Nv.pyomo.lp
Objective sense      : Minimize
Variables            :    1136  [Nneg: 1,  Binary: 1120,  General Integer: 15]
Objective nonzeros   :       1
Linear constraints   :     189  [Less: 94,  Equal: 95]
  Nonzeros           :   80213
  RHS nonzeros       :     161

Variables            : Min LB: 0.000000         Max UB: 1.000000       
Objective nonzeros   : Min   : 1.000000         Max   : 1.000000       
Linear constraints   :
  Nonzeros           : Min   : 1.000000         Max   : 8036379.       
  RHS nonzeros       : Min   : 1.000000         Max   : 8.000000       
Tried aggregator 2 times.
MIP Presolve eliminated 80 rows and 66 columns.
Aggregator did 5 substitutions.
Reduced MIP has 104 rows, 1065 columns, and 3052 nonzeros.
Reduced MIP has 1050 binaries, 15 generals, 0 SOSs, and 0 indicators.
Presolve time = 0.01 sec. (14.42 ticks)
Found incumbent of value 5.7939581e+07 after 0.01 sec. (16.47 ticks)
Probing time = 0.00 sec. (2.01 ticks)
Cover probing fixed 0 vars, tightened 27 bounds.
Tried aggregator 2 times.
Aggregator did 14 substitutions.
Reduced MIP has 90 rows, 1051 columns, and 3024 nonzeros.
Reduced MIP has 1050 binaries, 1 generals, 0 SOSs, and 0 indicators.
Presolve time = 0.00 sec. (2.62 ticks)
Probing time = 0.00 sec. (1.94 ticks)
Cover probing fixed 0 vars, tightened 4 bounds.
Clique table members: 75.
MIP emphasis: balance optimality and feasibility.
MIP search method: dynamic search.
Parallel mode: none, using 1 thread.
Root relaxation solution time = 0.00 sec. (0.90 ticks)

        Nodes                                         Cuts/
   Node  Left     Objective  IInf  Best Integer    Best Bound    ItCnt     Gap

*     0+    0                       5.79396e+07        0.0000           100.00%
      0     0   1.31637e+07    21   5.79396e+07   1.31637e+07       25   77.28%
*     0+    0                       2.14212e+07   1.31637e+07            38.55%
      0     0   1.31637e+07    30   2.14212e+07     Fract: 12       45   38.55%
*     0+    0                       1.70576e+07   1.31637e+07            22.83%
      0     0   1.31637e+07    34   1.70576e+07       Cuts: 7       92   22.83%
*     0+    0                       1.55033e+07   1.31637e+07            15.09%
*     0+    0                       1.54491e+07   1.31637e+07            14.79%
      0     2   1.31637e+07    24   1.54491e+07   1.31637e+07       92   14.79%
Elapsed time = 0.06 sec. (87.21 ticks, tree = 0.01 MB, solutions = 4)
*    10+   10                       1.52471e+07   1.31637e+07            13.66%
*    20+   20                       1.51164e+07   1.31637e+07            12.92%
*    40+   40                       1.43706e+07   1.31637e+07             8.40%
*    60+   60                       1.42097e+07   1.31637e+07             7.36%
*    90+   90                       1.41079e+07   1.31637e+07             6.69%
*   120+  120                       1.39024e+07   1.31637e+07             5.31%
*   466+  381                       1.37677e+07   1.31637e+07             4.39%
*   466+  381                       1.37646e+07   1.31637e+07             4.37%
    466   383   1.31637e+07    37   1.37646e+07   1.31637e+07     4382    4.37%
    467   382    infeasible         1.37646e+07   1.31637e+07     4382    4.37%
*   468+  254                       1.37489e+07   1.31637e+07             4.26%
    468   255   1.31637e+07    33   1.37489e+07   1.31637e+07     5156    4.26%
    469   256   1.31637e+07    30   1.37489e+07   1.31637e+07     5158    4.26%
    470   256   1.31637e+07    30   1.37489e+07   1.31637e+07     5179    4.26%
    471   257   1.31637e+07    30   1.37489e+07   1.31637e+07     5201    4.26%
    472   258   1.31637e+07    30   1.37489e+07   1.31637e+07     5211    4.26%
    473   258   1.31637e+07    28   1.37489e+07   1.31637e+07     5221    4.26%
    474   258   1.31637e+07    31   1.37489e+07   1.31637e+07     5244    4.26%
    584   209   1.31637e+07    35   1.37489e+07   1.31637e+07     6126    4.26%
Elapsed time = 0.71 sec. (1041.67 ticks, tree = 0.39 MB, solutions = 13)
*   768+  202                       1.37367e+07   1.31637e+07             4.17%
*   768+  152                       1.36803e+07   1.31637e+07             3.78%
*   768+  127                       1.36673e+07   1.31637e+07             3.68%
*   768+  109                       1.35816e+07   1.31637e+07             3.08%
*   968+  230                       1.35799e+07   1.31637e+07             3.07%
*   968+  220                       1.35262e+07   1.31637e+07             2.68%
   1007   254   1.32012e+07    33   1.35262e+07   1.31637e+07     9330    2.68%
   1008   254   1.32186e+07    32   1.35262e+07   1.31637e+07     9340    2.68%
   1009   255   1.32186e+07    32   1.35262e+07   1.31637e+07     9340    2.68%
   1010   255   1.32204e+07    32   1.35262e+07   1.31637e+07     9343    2.68%
   1011   256   1.32204e+07    30   1.35262e+07   1.31637e+07     9344    2.68%
   1012   257   1.32207e+07    30   1.35262e+07   1.31637e+07     9345    2.68%
   1013   257   1.32216e+07    29   1.35262e+07   1.31637e+07     9347    2.68%
   1014   257   1.32227e+07    31   1.35262e+07   1.31637e+07     9349    2.68%
   1015   258   1.32227e+07    32   1.35262e+07   1.31637e+07     9351    2.68%
   1016   258   1.32231e+07    29   1.35262e+07   1.31637e+07     9352    2.68%
Elapsed time = 1.37 sec. (2000.24 ticks, tree = 0.53 MB, solutions = 19)
*  1068+  268                       1.35070e+07   1.31637e+07             2.54%
*  1068+  255                       1.34810e+07   1.31637e+07             2.35%
*  1336   422      integral     0   1.34728e+07   1.31637e+07    11800    2.29%
*  1436+  486                       1.34566e+07   1.31637e+07             2.18%
*  1828+  722                       1.34299e+07   1.31637e+07             1.98%
   1968   846   1.31637e+07    30   1.34299e+07   1.31637e+07    16927    1.98%
   1969   847   1.31637e+07    30   1.34299e+07   1.31637e+07    16934    1.98%
   1970   848   1.31637e+07    30   1.34299e+07   1.31637e+07    16941    1.98%
   1971   849   1.31637e+07    32   1.34299e+07   1.31637e+07    16957    1.98%
   1972   850   1.31637e+07    33   1.34299e+07   1.31637e+07    16972    1.98%
   1973   851   1.31637e+07    31   1.34299e+07   1.31637e+07    16977    1.98%
   1974   852   1.31637e+07    32   1.34299e+07   1.31637e+07    16984    1.98%
   1975   853   1.31637e+07    31   1.34299e+07   1.31637e+07    16990    1.98%
   1976   854   1.31637e+07    32   1.34299e+07   1.31637e+07    16996    1.98%
   1977   855   1.31637e+07    35   1.34299e+07   1.31637e+07    17014    1.98%
Elapsed time = 2.05 sec. (2963.97 ticks, tree = 1.89 MB, solutions = 24)
   3393  1901        cutoff         1.34299e+07   1.31637e+07    31503    1.98%
   3394  1902   1.31637e+07    40   1.34299e+07   1.31637e+07    31557    1.98%
   3395  1903   1.31637e+07    45   1.34299e+07   1.31637e+07    31570    1.98%
   3396  1904   1.31637e+07    40   1.34299e+07   1.31637e+07    31582    1.98%
   3397  1905   1.31637e+07    44   1.34299e+07   1.31637e+07    31624    1.98%
   3398  1906   1.31637e+07    42   1.34299e+07   1.31637e+07    31647    1.98%
   3399  1907   1.31637e+07    38   1.34299e+07   1.31637e+07    31658    1.98%
   3400  1908   1.31637e+07    38   1.34299e+07   1.31637e+07    31671    1.98%
   3401  1909   1.32085e+07    34   1.34299e+07   1.31637e+07    31697    1.98%
   3402  1910   1.32085e+07    36   1.34299e+07   1.31637e+07    31699    1.98%
Elapsed time = 2.68 sec. (3935.24 ticks, tree = 4.35 MB, solutions = 24)
   4490  2626   1.31637e+07    32   1.34299e+07   1.31637e+07    47498    1.98%
   4491  2627   1.31637e+07    37   1.34299e+07   1.31637e+07    47515    1.98%
   4492  2628   1.31637e+07    36   1.34299e+07   1.31637e+07    47516    1.98%
   4493  2629   1.31637e+07    48   1.34299e+07   1.31637e+07    47562    1.98%
   4494  2630   1.31637e+07    46   1.34299e+07   1.31637e+07    47600    1.98%
   4495  2631   1.31637e+07    45   1.34299e+07   1.31637e+07    47627    1.98%
   4496  2632   1.31637e+07    49   1.34299e+07   1.31637e+07    47664    1.98%
   4497  2633   1.31637e+07    48   1.34299e+07   1.31637e+07    47669    1.98%
   4498  2634   1.31637e+07    46   1.34299e+07   1.31637e+07    47698    1.98%
   4499  2635   1.31637e+07    46   1.34299e+07   1.31637e+07    47701    1.98%
Elapsed time = 3.31 sec. (4900.00 ticks, tree = 6.50 MB, solutions = 24)
   5479  3382        cutoff         1.34299e+07   1.31637e+07    62196    1.98%
   5480  3383   1.32101e+07    35   1.34299e+07   1.31637e+07    62346    1.98%
   5481  3382        cutoff         1.34299e+07   1.31637e+07    62347    1.98%
   5482  3381    infeasible         1.34299e+07   1.31637e+07    62347    1.98%
   5483  3380        cutoff         1.34299e+07   1.31637e+07    62404    1.98%
   5484  3379        cutoff         1.34299e+07   1.31637e+07    62520    1.98%
   5485  3380   1.32268e+07    39   1.34299e+07   1.31637e+07    62678    1.98%
   5486  3379        cutoff         1.34299e+07   1.31637e+07    62679    1.98%
   5487  3378    infeasible         1.34299e+07   1.31637e+07    62679    1.98%
   5488  3379   1.31637e+07    43   1.34299e+07   1.31637e+07    62773    1.98%
Elapsed time = 3.96 sec. (5904.13 ticks, tree = 9.14 MB, solutions = 24)
   6409  4026   1.31644e+07    40   1.34299e+07   1.31637e+07    77444    1.98%
   6410  4027   1.32200e+07    36   1.34299e+07   1.31637e+07    77461    1.98%
   6411  4028   1.32285e+07    34   1.34299e+07   1.31637e+07    77464    1.98%
   6412  4029   1.32285e+07    34   1.34299e+07   1.31637e+07    77465    1.98%
   6413  4030   1.32285e+07    32   1.34299e+07   1.31637e+07    77468    1.98%
   6414  4030   1.32285e+07    34   1.34299e+07   1.31637e+07    77477    1.98%
   6415  4029        cutoff         1.34299e+07   1.31637e+07    77479    1.98%
   6416  4028        cutoff         1.34299e+07   1.31637e+07    77639    1.98%
   6417  4029   1.32496e+07    22   1.34299e+07   1.31637e+07    77711    1.98%
   6418  4030   1.32496e+07    25   1.34299e+07   1.31637e+07    77714    1.98%
Elapsed time = 4.58 sec. (6877.40 ticks, tree = 11.61 MB, solutions = 24)
   7083  4436   1.31637e+07    78   1.34299e+07   1.31637e+07    93139    1.98%
   7084  4437   1.31637e+07    59   1.34299e+07   1.31637e+07    93168    1.98%
   7085  4438   1.31637e+07    58   1.34299e+07   1.31637e+07    93173    1.98%
   7086  4439   1.31637e+07    55   1.34299e+07   1.31637e+07    93213    1.98%
   7087  4440   1.31637e+07    55   1.34299e+07   1.31637e+07    93230    1.98%
   7088  4441   1.31637e+07    58   1.34299e+07   1.31637e+07    93269    1.98%
   7089  4442   1.31637e+07    64   1.34299e+07   1.31637e+07    93283    1.98%
   7090  4443   1.31637e+07    59   1.34299e+07   1.31637e+07    93290    1.98%
   7091  4444   1.31637e+07    50   1.34299e+07   1.31637e+07    93358    1.98%
   7092  4445   1.31637e+07    56   1.34299e+07   1.31637e+07    93411    1.98%
Elapsed time = 5.23 sec. (7879.08 ticks, tree = 13.69 MB, solutions = 24)
   7826  5006        cutoff         1.34299e+07   1.31637e+07   107649    1.98%
   7827  5005        cutoff         1.34299e+07   1.31637e+07   107663    1.98%
   7828  5004        cutoff         1.34299e+07   1.31637e+07   107678    1.98%
   7829  5003        cutoff         1.34299e+07   1.31637e+07   107695    1.98%
   7830  5002    infeasible         1.34299e+07   1.31637e+07   107715    1.98%
   7831  5003   1.31873e+07    36   1.34299e+07   1.31637e+07   107882    1.98%
   7832  5003   1.33787e+07    23   1.34299e+07   1.31637e+07   107937    1.98%
   7833  5002        cutoff         1.34299e+07   1.31637e+07   107948    1.98%
   7834  5003   1.32332e+07    27   1.34299e+07   1.31637e+07   107997    1.98%
   7835  5004   1.32689e+07    30   1.34299e+07   1.31637e+07   108046    1.98%
Elapsed time = 5.86 sec. (8855.69 ticks, tree = 16.41 MB, solutions = 24)
   8255  5298   1.33627e+07    48   1.34299e+07   1.31637e+07   120344    1.98%
   8256  5299   1.33627e+07    42   1.34299e+07   1.31637e+07   120346    1.98%
   8257  5299   1.34144e+07    43   1.34299e+07   1.31637e+07   120355    1.98%
   8258  5300   1.34144e+07    45   1.34299e+07   1.31637e+07   120357    1.98%
   8259  5299   1.34144e+07    40   1.34299e+07   1.31637e+07   120360    1.98%
   8260  5298        cutoff         1.34299e+07   1.31637e+07   120361    1.98%
   8261  5299   1.31652e+07    46   1.34299e+07   1.31637e+07   120629    1.98%
   8262  5300   1.33112e+07    40   1.34299e+07   1.31637e+07   120651    1.98%
   8263  5301   1.33112e+07    35   1.34299e+07   1.31637e+07   120675    1.98%
   9340  5865   1.31790e+07    60   1.34299e+07   1.31637e+07   163338    1.98%
Elapsed time = 8.27 sec. (12685.87 ticks, tree = 21.84 MB, solutions = 24)
*  9768+ 6030                       1.34068e+07   1.31637e+07             1.81%
*  9868+ 5383                       1.33367e+07   1.31637e+07             1.30%
  10186  5497   1.32072e+07    37   1.33367e+07   1.31637e+07   199428    1.30%
  10187  5497   1.32077e+07    46   1.33367e+07   1.31637e+07   199437    1.30%
  10188  5498   1.32077e+07    45   1.33367e+07   1.31637e+07   199438    1.30%
  10189  5499   1.32077e+07    45   1.33367e+07   1.31637e+07   199439    1.30%
  10190  5500   1.32080e+07    41   1.33367e+07   1.31637e+07   199446    1.30%
  10191  5501   1.32101e+07    42   1.33367e+07   1.31637e+07   199453    1.30%
  10192  5502   1.32101e+07    43   1.33367e+07   1.31637e+07   199455    1.30%
  10193  5503   1.32134e+07    43   1.33367e+07   1.31637e+07   199474    1.30%
  10194  5503   1.32453e+07    37   1.33367e+07   1.31637e+07   199500    1.30%
  10195  5503   1.32455e+07    36   1.33367e+07   1.31637e+07   199505    1.30%
Elapsed time = 11.08 sec. (16507.93 ticks, tree = 21.87 MB, solutions = 26)
  11468  6261   1.31756e+07    37   1.33367e+07   1.31637e+07   259529    1.30%
  11469  6262   1.31823e+07    38   1.33367e+07   1.31637e+07   259546    1.30%
  11470  6263   1.31823e+07    37   1.33367e+07   1.31637e+07   259547    1.30%
  11471  6264   1.31825e+07    35   1.33367e+07   1.31637e+07   259552    1.30%
  11472  6265   1.32275e+07    34   1.33367e+07   1.31637e+07   259572    1.30%
  11473  6266   1.32344e+07    36   1.33367e+07   1.31637e+07   259578    1.30%
  11474  6267   1.32350e+07    36   1.33367e+07   1.31637e+07   259579    1.30%
  11475  6268   1.32367e+07    36   1.33367e+07   1.31637e+07   259585    1.30%
  11476  6269   1.32367e+07    35   1.33367e+07   1.31637e+07   259586    1.30%
  11477  6269   1.33152e+07    25   1.33367e+07   1.31637e+07   259603    1.30%
Elapsed time = 13.56 sec. (20343.51 ticks, tree = 27.80 MB, solutions = 26)
  12800  7099   1.31644e+07    48   1.33367e+07   1.31637e+07   315696    1.30%
  12801  7100   1.31792e+07    50   1.33367e+07   1.31637e+07   315717    1.30%
  12802  7101   1.31808e+07    45   1.33367e+07   1.31637e+07   315721    1.30%
  12803  7102   1.31810e+07    36   1.33367e+07   1.31637e+07   315724    1.30%
  12804  7103   1.32389e+07    31   1.33367e+07   1.31637e+07   315753    1.30%
  12805  7103   1.32389e+07    34   1.33367e+07   1.31637e+07   315769    1.30%
  12806  7104   1.32477e+07    34   1.33367e+07   1.31637e+07   315770    1.30%
  12807  7105   1.32477e+07    31   1.33367e+07   1.31637e+07   315788    1.30%
  12808  7104        cutoff         1.33367e+07   1.31637e+07   315790    1.30%
  12809  7103        cutoff         1.33367e+07   1.31637e+07   315803    1.30%
Elapsed time = 15.97 sec. (24182.95 ticks, tree = 34.16 MB, solutions = 26)
  14369  8093   1.32347e+07    42   1.33367e+07   1.31637e+07   378826    1.30%
  14370  8094   1.32392e+07    37   1.33367e+07   1.31637e+07   378853    1.30%
  14371  8093        cutoff         1.33367e+07   1.31637e+07   378858    1.30%
  14372  8092        cutoff         1.33367e+07   1.31637e+07   378859    1.30%
  14373  8093   1.32016e+07    56   1.33367e+07   1.31637e+07   379209    1.30%
  14374  8094   1.32169e+07    60   1.33367e+07   1.31637e+07   379246    1.30%
  14375  8093        cutoff         1.33367e+07   1.31637e+07   379258    1.30%
  14376  8092        cutoff         1.33367e+07   1.31637e+07   379284    1.30%
  14377  8091    infeasible         1.33367e+07   1.31637e+07   379306    1.30%
  14378  8091   1.33354e+07    31   1.33367e+07   1.31637e+07   379639    1.30%
Elapsed time = 19.26 sec. (28068.52 ticks, tree = 41.69 MB, solutions = 26)
  15695  8788        cutoff         1.33367e+07   1.31637e+07   432092    1.30%
  15696  8787        cutoff         1.33367e+07   1.31637e+07   432175    1.30%
  15697  8786        cutoff         1.33367e+07   1.31637e+07   432388    1.30%
  15698  8786   1.32029e+07    45   1.33367e+07   1.31637e+07   432694    1.30%
  15699  8787   1.32119e+07    41   1.33367e+07   1.31637e+07   432701    1.30%
  15700  8788   1.32156e+07    40   1.33367e+07   1.31637e+07   432717    1.30%
  15701  8787        cutoff         1.33367e+07   1.31637e+07   432748    1.30%
  15702  8786        cutoff         1.33367e+07   1.31637e+07   432755    1.30%
  15703  8785   1.33287e+07    39   1.33367e+07   1.31637e+07   433105    1.30%
  15704  8784    infeasible         1.33367e+07   1.31637e+07   433105    1.30%
Elapsed time = 22.86 sec. (31947.15 ticks, tree = 47.39 MB, solutions = 26)
  16915  9351   1.31877e+07    37   1.33367e+07   1.31637e+07   489975    1.30%
  16916  9352   1.31881e+07    33   1.33367e+07   1.31637e+07   489977    1.30%
  16917  9353   1.31881e+07    36   1.33367e+07   1.31637e+07   490005    1.30%
  16918  9354   1.31890e+07    31   1.33367e+07   1.31637e+07   490031    1.30%
  16919  9355   1.31890e+07    30   1.33367e+07   1.31637e+07   490032    1.30%
  16920  9356   1.32019e+07    27   1.33367e+07   1.31637e+07   490060    1.30%
  16921  9357   1.32216e+07    28   1.33367e+07   1.31637e+07   490074    1.30%
  16922  9358   1.32344e+07    31   1.33367e+07   1.31637e+07   490078    1.30%
  16923  9359   1.32345e+07    28   1.33367e+07   1.31637e+07   490079    1.30%
  16924  9360   1.32345e+07    28   1.33367e+07   1.31637e+07   490096    1.30%
Elapsed time = 26.46 sec. (35768.97 ticks, tree = 51.97 MB, solutions = 26)
  18040  9958   1.31637e+07    62   1.33367e+07   1.31637e+07   544493    1.30%
  18041  9959   1.31648e+07    51   1.33367e+07   1.31637e+07   544614    1.30%
  18042  9960   1.31648e+07    51   1.33367e+07   1.31637e+07   544615    1.30%
  18043  9961   1.31648e+07    51   1.33367e+07   1.31637e+07   544616    1.30%
  18044  9962   1.31656e+07    49   1.33367e+07   1.31637e+07   544643    1.30%
  18045  9963   1.31661e+07    45   1.33367e+07   1.31637e+07   544656    1.30%
  18046  9964   1.31662e+07    45   1.33367e+07   1.31637e+07   544657    1.30%
  18047  9965   1.31663e+07    45   1.33367e+07   1.31637e+07   544659    1.30%
  18048  9966   1.31677e+07    43   1.33367e+07   1.31637e+07   544665    1.30%
  18049  9967   1.31681e+07    41   1.33367e+07   1.31637e+07   544679    1.30%
Elapsed time = 30.05 sec. (39620.03 ticks, tree = 56.64 MB, solutions = 26)
  19372 10711   1.31637e+07    48   1.33367e+07   1.31637e+07   597680    1.30%
  19373 10712   1.32366e+07    33   1.33367e+07   1.31637e+07   597760    1.30%
  19374 10713   1.32458e+07    33   1.33367e+07   1.31637e+07   597764    1.30%
  19375 10714   1.32458e+07    27   1.33367e+07   1.31637e+07   597765    1.30%
  19376 10715   1.32458e+07    31   1.33367e+07   1.31637e+07   597782    1.30%
  19377 10716   1.32458e+07    26   1.33367e+07   1.31637e+07   597797    1.30%
  19378 10717   1.32458e+07    42   1.33367e+07   1.31637e+07   597807    1.30%
  19379 10718   1.32458e+07    30   1.33367e+07   1.31637e+07   597819    1.30%
  19380 10719   1.32458e+07    27   1.33367e+07   1.31637e+07   597822    1.30%
  19381 10720   1.32458e+07    28   1.33367e+07   1.31637e+07   597826    1.30%
Elapsed time = 33.57 sec. (43459.05 ticks, tree = 62.26 MB, solutions = 26)
  20766 11581   1.31637e+07    54   1.33367e+07   1.31637e+07   660063    1.30%
  20767 11582   1.31637e+07    54   1.33367e+07   1.31637e+07   660065    1.30%
  20768 11583   1.31637e+07    50   1.33367e+07   1.31637e+07   660079    1.30%
  20769 11584   1.31637e+07    49   1.33367e+07   1.31637e+07   660084    1.30%
  20770 11585   1.31637e+07    49   1.33367e+07   1.31637e+07   660086    1.30%
  20771 11586   1.31637e+07    48   1.33367e+07   1.31637e+07   660089    1.30%
  20772 11587   1.31637e+07    49   1.33367e+07   1.31637e+07   660127    1.30%
  20773 11588   1.31637e+07    52   1.33367e+07   1.31637e+07   660130    1.30%
  20774 11589   1.31637e+07    51   1.33367e+07   1.31637e+07   660132    1.30%
  20775 11590   1.31637e+07    50   1.33367e+07   1.31637e+07   660133    1.30%
Elapsed time = 37.23 sec. (47292.08 ticks, tree = 68.45 MB, solutions = 26)
  22199 12520        cutoff         1.33367e+07   1.31637e+07   714576    1.30%
  22200 12520   1.32231e+07    30   1.33367e+07   1.31637e+07   714599    1.30%
  22201 12521   1.32316e+07    29   1.33367e+07   1.31637e+07   714603    1.30%
  22202 12522   1.32487e+07    29   1.33367e+07   1.31637e+07   714613    1.30%
  22203 12522   1.32501e+07    26   1.33367e+07   1.31637e+07   714615    1.30%
  22204 12523   1.33051e+07    28   1.33367e+07   1.31637e+07   714625    1.30%
  22205 12524   1.32501e+07    26   1.33367e+07   1.31637e+07   714627    1.30%
  22206 12524   1.32565e+07    30   1.33367e+07   1.31637e+07   714636    1.30%
  22207 12525   1.32694e+07    26   1.33367e+07   1.31637e+07   714639    1.30%
  22208 12526   1.32734e+07    26   1.33367e+07   1.31637e+07   714643    1.30%
Elapsed time = 40.74 sec. (51112.39 ticks, tree = 75.19 MB, solutions = 26)
  23542 13189   1.32928e+07    43   1.33367e+07   1.31637e+07   772146    1.30%
  23543 13188        cutoff         1.33367e+07   1.31637e+07   772227    1.30%
  23544 13187        cutoff         1.33367e+07   1.31637e+07   772268    1.30%
  23545 13186        cutoff         1.33367e+07   1.31637e+07   772443    1.30%
  23546 13185        cutoff         1.33367e+07   1.31637e+07   772578    1.30%
  23547 13186   1.31637e+07    50   1.33367e+07   1.31637e+07   772685    1.30%
  23548 13186   1.32849e+07    30   1.33367e+07   1.31637e+07   772885    1.30%
  23549 13187   1.33030e+07    30   1.33367e+07   1.31637e+07   772931    1.30%
  23550 13188   1.33030e+07    32   1.33367e+07   1.31637e+07   772934    1.30%
  23551 13187        cutoff         1.33367e+07   1.31637e+07   772940    1.30%
Elapsed time = 44.34 sec. (54985.35 ticks, tree = 79.97 MB, solutions = 26)
  25046 14157   1.31637e+07    46   1.33367e+07   1.31637e+07   827099    1.30%
  25047 14158   1.31637e+07    48   1.33367e+07   1.31637e+07   827146    1.30%
  25048 14159   1.31637e+07    49   1.33367e+07   1.31637e+07   827231    1.30%
  25049 14160   1.31637e+07    49   1.33367e+07   1.31637e+07   827463    1.30%
  25050 14161   1.31637e+07    45   1.33367e+07   1.31637e+07   827483    1.30%
  25051 14162   1.31637e+07    51   1.33367e+07   1.31637e+07   827512    1.30%
  25052 14163   1.31637e+07    54   1.33367e+07   1.31637e+07   827528    1.30%
  25053 14164   1.31637e+07    54   1.33367e+07   1.31637e+07   827540    1.30%
  25054 14165   1.31637e+07    54   1.33367e+07   1.31637e+07   827541    1.30%
  25055 14166   1.31637e+07    53   1.33367e+07   1.31637e+07   827542    1.30%
Elapsed time = 47.95 sec. (58829.89 ticks, tree = 86.87 MB, solutions = 26)
  26378 15007   1.31637e+07    46   1.33367e+07   1.31637e+07   882348    1.30%
  26379 15008   1.31637e+07    43   1.33367e+07   1.31637e+07   882367    1.30%
  26380 15009   1.31637e+07    44   1.33367e+07   1.31637e+07   882455    1.30%
  26381 15010   1.31637e+07    44   1.33367e+07   1.31637e+07   882473    1.30%
  26382 15011   1.31637e+07    45   1.33367e+07   1.31637e+07   882490    1.30%
  26383 15012   1.31637e+07    42   1.33367e+07   1.31637e+07   882511    1.30%
  26384 15013   1.31637e+07    40   1.33367e+07   1.31637e+07   882596    1.30%
  26385 15014   1.31826e+07    35   1.33367e+07   1.31637e+07   882663    1.30%
  26386 15015   1.31851e+07    34   1.33367e+07   1.31637e+07   882665    1.30%
  26387 15016   1.31859e+07    41   1.33367e+07   1.31637e+07   882840    1.30%
Elapsed time = 51.54 sec. (62679.93 ticks, tree = 92.80 MB, solutions = 26)
  28037 16051   1.31637e+07    40   1.33367e+07   1.31637e+07   938715    1.30%
  28038 16052   1.31637e+07    37   1.33367e+07   1.31637e+07   938716    1.30%
  28039 16053   1.31637e+07    37   1.33367e+07   1.31637e+07   938775    1.30%
  28040 16054   1.31637e+07    38   1.33367e+07   1.31637e+07   938788    1.30%
  28041 16055   1.31637e+07    42   1.33367e+07   1.31637e+07   938791    1.30%
  28042 16056   1.31637e+07    43   1.33367e+07   1.31637e+07   938855    1.30%
  28043 16057   1.31637e+07    44   1.33367e+07   1.31637e+07   938857    1.30%
  28044 16056        cutoff         1.33367e+07   1.31637e+07   938979    1.30%
  28045 16055        cutoff         1.33367e+07   1.31637e+07   939101    1.30%
  28046 16056   1.31637e+07    35   1.33367e+07   1.31637e+07   939139    1.30%
Elapsed time = 55.10 sec. (66524.87 ticks, tree = 100.03 MB, solutions = 26)
  29810 17062   1.31637e+07    34   1.33367e+07   1.31637e+07   993849    1.30%
  29811 17063   1.31637e+07    33   1.33367e+07   1.31637e+07   993852    1.30%
  29812 17064   1.31637e+07    35   1.33367e+07   1.31637e+07   993861    1.30%
  29813 17065   1.31637e+07    37   1.33367e+07   1.31637e+07   993896    1.30%
  29814 17066   1.31637e+07    35   1.33367e+07   1.31637e+07   993926    1.30%
  29815 17067   1.31637e+07    33   1.33367e+07   1.31637e+07   993927    1.30%
  29816 17068   1.31637e+07    38   1.33367e+07   1.31637e+07   993957    1.30%
  29817 17069   1.31637e+07    42   1.33367e+07   1.31637e+07   993971    1.30%
  29818 17070   1.31669e+07    39   1.33367e+07   1.31637e+07   994216    1.30%
  29819 17071   1.31670e+07    39   1.33367e+07   1.31637e+07   994217    1.30%
Elapsed time = 58.60 sec. (70362.07 ticks, tree = 107.56 MB, solutions = 26)
  32382 18664   1.31637e+07    40   1.33367e+07   1.31637e+07  1053567    1.30%
  32383 18665   1.31637e+07    45   1.33367e+07   1.31637e+07  1053675    1.30%
  32384 18666   1.31637e+07    54   1.33367e+07   1.31637e+07  1053851    1.30%
  32385 18667   1.31637e+07    51   1.33367e+07   1.31637e+07  1053866    1.30%
  32386 18668   1.32048e+07    38   1.33367e+07   1.31637e+07  1053997    1.30%
  32387 18669   1.32048e+07    38   1.33367e+07   1.31637e+07  1053999    1.30%
  32388 18668   1.32048e+07    38   1.33367e+07   1.31637e+07  1054001    1.30%
  32389 18669   1.32048e+07    35   1.33367e+07   1.31637e+07  1054090    1.30%
  32390 18670   1.32048e+07    37   1.33367e+07   1.31637e+07  1054105    1.30%
  32391 18671   1.32048e+07    36   1.33367e+07   1.31637e+07  1054138    1.30%
Elapsed time = 62.19 sec. (74205.29 ticks, tree = 118.81 MB, solutions = 26)
  35012 20492   1.31986e+07    40   1.33367e+07   1.31637e+07  1112246    1.30%
  35013 20493   1.31998e+07    38   1.33367e+07   1.31637e+07  1112252    1.30%
  35014 20493   1.33000e+07    31   1.33367e+07   1.31637e+07  1112274    1.30%
  35015 20494   1.33000e+07    31   1.33367e+07   1.31637e+07  1112275    1.30%
  35016 20493        cutoff         1.33367e+07   1.31637e+07  1112277    1.30%
  35017 20492    infeasible         1.33367e+07   1.31637e+07  1112277    1.30%
  35018 20492   1.33187e+07    20   1.33367e+07   1.31637e+07  1112340    1.30%
  35019 20493   1.33187e+07    20   1.33367e+07   1.31637e+07  1112340    1.30%
  35020 20494   1.33187e+07    21   1.33367e+07   1.31637e+07  1112345    1.30%
  35021 20493        cutoff         1.33367e+07   1.31637e+07  1112360    1.30%
Elapsed time = 65.78 sec. (78032.37 ticks, tree = 131.67 MB, solutions = 26)
  37508 22192   1.31637e+07    61   1.33367e+07   1.31637e+07  1166235    1.30%
  37509 22193   1.31637e+07    61   1.33367e+07   1.31637e+07  1166255    1.30%
  37510 22194   1.31637e+07    60   1.33367e+07   1.31637e+07  1166276    1.30%
  37511 22195   1.31637e+07    56   1.33367e+07   1.31637e+07  1166289    1.30%
  37512 22196   1.31637e+07    46   1.33367e+07   1.31637e+07  1166301    1.30%
  37513 22197   1.31637e+07    52   1.33367e+07   1.31637e+07  1166317    1.30%
  37514 22197   1.32081e+07    36   1.33367e+07   1.31637e+07  1166386    1.30%
  37515 22198   1.32081e+07    36   1.33367e+07   1.31637e+07  1166392    1.30%
  37516 22198   1.32186e+07    35   1.33367e+07   1.31637e+07  1166405    1.30%
  37517 22199   1.32196e+07    35   1.33367e+07   1.31637e+07  1166407    1.30%
Elapsed time = 69.29 sec. (81857.75 ticks, tree = 143.68 MB, solutions = 26)
  40123 23977   1.33187e+07    25   1.33367e+07   1.31637e+07  1221377    1.30%
  40124 23978   1.33187e+07    28   1.33367e+07   1.31637e+07  1221382    1.30%
  40125 23979   1.33187e+07    26   1.33367e+07   1.31637e+07  1221383    1.30%
  40126 23980   1.33187e+07    25   1.33367e+07   1.31637e+07  1221384    1.30%
  40127 23981   1.33187e+07    24   1.33367e+07   1.31637e+07  1221385    1.30%
  40128 23982   1.33187e+07    21   1.33367e+07   1.31637e+07  1221387    1.30%
  40129 23983   1.33187e+07    21   1.33367e+07   1.31637e+07  1221395    1.30%
  40130 23984   1.33187e+07    20   1.33367e+07   1.31637e+07  1221396    1.30%
  40131 23985   1.33187e+07    23   1.33367e+07   1.31637e+07  1221409    1.30%
  40132 23986   1.33187e+07    20   1.33367e+07   1.31637e+07  1221417    1.30%
Elapsed time = 72.78 sec. (85676.34 ticks, tree = 156.30 MB, solutions = 26)
  42868 25957   1.31792e+07    46   1.33367e+07   1.31637e+07  1278216    1.30%
  42869 25958   1.31856e+07    38   1.33367e+07   1.31637e+07  1278236    1.30%
  42870 25959   1.31856e+07    38   1.33367e+07   1.31637e+07  1278237    1.30%
  42871 25960   1.31964e+07    33   1.33367e+07   1.31637e+07  1278257    1.30%
  42872 25961   1.31965e+07    33   1.33367e+07   1.31637e+07  1278259    1.30%
  42873 25962   1.31985e+07    32   1.33367e+07   1.31637e+07  1278262    1.30%
  42874 25963   1.31985e+07    31   1.33367e+07   1.31637e+07  1278265    1.30%
  42875 25964   1.32052e+07    31   1.33367e+07   1.31637e+07  1278267    1.30%
  42876 25965   1.32083e+07    29   1.33367e+07   1.31637e+07  1278270    1.30%
  42877 25966   1.32083e+07    30   1.33367e+07   1.31637e+07  1278274    1.30%
Elapsed time = 76.42 sec. (89636.53 ticks, tree = 170.22 MB, solutions = 26)
  45101 27387   1.31840e+07    38   1.33367e+07   1.31637e+07  1338614    1.30%
  45102 27388   1.31840e+07    38   1.33367e+07   1.31637e+07  1338615    1.30%
  45103 27389   1.31844e+07    39   1.33367e+07   1.31637e+07  1338622    1.30%
  45104 27390   1.31960e+07    35   1.33367e+07   1.31637e+07  1338633    1.30%
  45105 27391   1.31961e+07    35   1.33367e+07   1.31637e+07  1338634    1.30%
  45106 27392   1.31988e+07    34   1.33367e+07   1.31637e+07  1338647    1.30%
  45107 27393   1.31988e+07    34   1.33367e+07   1.31637e+07  1338648    1.30%
  45108 27394   1.31988e+07    34   1.33367e+07   1.31637e+07  1338650    1.30%
  45109 27394   1.31992e+07    35   1.33367e+07   1.31637e+07  1338660    1.30%
  45110 27395   1.31992e+07    32   1.33367e+07   1.31637e+07  1338661    1.30%
Elapsed time = 79.99 sec. (93461.43 ticks, tree = 180.24 MB, solutions = 26)
  47110 28715   1.31637e+07    51   1.33367e+07   1.31637e+07  1395307    1.30%
  47111 28716   1.31637e+07    52   1.33367e+07   1.31637e+07  1395320    1.30%
  47112 28717   1.31687e+07    49   1.33367e+07   1.31637e+07  1395353    1.30%
  47113 28718   1.31753e+07    46   1.33367e+07   1.31637e+07  1395362    1.30%
  47114 28719   1.31765e+07    48   1.33367e+07   1.31637e+07  1395367    1.30%
  47115 28720   1.31767e+07    44   1.33367e+07   1.31637e+07  1395370    1.30%
  47116 28721   1.31767e+07    45   1.33367e+07   1.31637e+07  1395372    1.30%
  47117 28722   1.31770e+07    43   1.33367e+07   1.31637e+07  1395376    1.30%
  47118 28723   1.31772e+07    42   1.33367e+07   1.31637e+07  1395378    1.30%
  47119 28724   1.31783e+07    43   1.33367e+07   1.31637e+07  1395383    1.30%
Elapsed time = 83.53 sec. (97286.89 ticks, tree = 189.52 MB, solutions = 26)
  49615 30572        cutoff         1.33367e+07   1.31637e+07  1449873    1.30%
  49616 30571        cutoff         1.33367e+07   1.31637e+07  1449875    1.30%
  49617 30572   1.31637e+07    38   1.33367e+07   1.31637e+07  1449924    1.30%
  49618 30573   1.32163e+07    22   1.33367e+07   1.31637e+07  1449979    1.30%
  49619 30574   1.33187e+07    17   1.33367e+07   1.31637e+07  1450046    1.30%
  49620 30573        cutoff         1.33367e+07   1.31637e+07  1450089    1.30%
  49621 30572        cutoff         1.33367e+07   1.31637e+07  1450093    1.30%
  49622 30571        cutoff         1.33367e+07   1.31637e+07  1450164    1.30%
  49623 30572   1.31637e+07    36   1.33367e+07   1.31637e+07  1450185    1.30%
  49624 30573   1.31637e+07    43   1.33367e+07   1.31637e+07  1450211    1.30%
Elapsed time = 87.09 sec. (101124.41 ticks, tree = 202.52 MB, solutions = 26)
  51903 32082   1.31637e+07    51   1.33367e+07   1.31637e+07  1510807    1.30%
  51904 32083   1.31637e+07    48   1.33367e+07   1.31637e+07  1510809    1.30%
  51905 32084   1.31637e+07    45   1.33367e+07   1.31637e+07  1510832    1.30%
  51906 32085   1.31637e+07    43   1.33367e+07   1.31637e+07  1510833    1.30%
  51907 32086   1.31637e+07    51   1.33367e+07   1.31637e+07  1510904    1.30%
  51908 32087   1.31637e+07    55   1.33367e+07   1.31637e+07  1510930    1.30%
  51909 32088   1.31637e+07    56   1.33367e+07   1.31637e+07  1510953    1.30%
  51910 32089   1.31637e+07    55   1.33367e+07   1.31637e+07  1510955    1.30%
  51911 32090   1.31637e+07    53   1.33367e+07   1.31637e+07  1510965    1.30%
  51912 32091   1.31637e+07    53   1.33367e+07   1.31637e+07  1510966    1.30%
Elapsed time = 90.71 sec. (104958.69 ticks, tree = 213.18 MB, solutions = 26)
* 52168+32098                       1.33329e+07   1.31637e+07             1.27%
  52889 32567   1.32062e+07    38   1.33329e+07   1.31637e+07  1536496    1.27%
  52890 32568   1.32377e+07    37   1.33329e+07   1.31637e+07  1536509    1.27%
  52891 32569   1.32377e+07    30   1.33329e+07   1.31637e+07  1536523    1.27%
  52892 32570   1.32391e+07    37   1.33329e+07   1.31637e+07  1536581    1.27%
  52893 32571   1.32403e+07    36   1.33329e+07   1.31637e+07  1536584    1.27%
  52894 32572   1.32411e+07    34   1.33329e+07   1.31637e+07  1536587    1.27%
  52895 32571        cutoff         1.33329e+07   1.31637e+07  1536600    1.27%
  52896 32572   1.32411e+07    34   1.33329e+07   1.31637e+07  1536601    1.27%
  52897 32573   1.32411e+07    34   1.33329e+07   1.31637e+07  1536602    1.27%
  52898 32574   1.32411e+07    34   1.33329e+07   1.31637e+07  1536603    1.27%
Elapsed time = 93.82 sec. (108787.66 ticks, tree = 216.67 MB, solutions = 27)
  53968 33301   1.31637e+07    53   1.33329e+07   1.31637e+07  1568726    1.27%
  53969 33302   1.31637e+07    52   1.33329e+07   1.31637e+07  1568729    1.27%
  53970 33303   1.31637e+07    41   1.33329e+07   1.31637e+07  1568730    1.27%
  53971 33304   1.31637e+07    39   1.33329e+07   1.31637e+07  1568755    1.27%
  53972 33305   1.31637e+07    42   1.33329e+07   1.31637e+07  1568798    1.27%
  53973 33306   1.31637e+07    44   1.33329e+07   1.31637e+07  1568801    1.27%
  53974 33307   1.31637e+07    41   1.33329e+07   1.31637e+07  1568806    1.27%
  53975 33308   1.31637e+07    43   1.33329e+07   1.31637e+07  1568859    1.27%
  53976 33309   1.31637e+07    42   1.33329e+07   1.31637e+07  1568875    1.27%
  53977 33310   1.31637e+07    42   1.33329e+07   1.31637e+07  1568904    1.27%
Elapsed time = 97.20 sec. (112633.42 ticks, tree = 222.81 MB, solutions = 27)

Cover cuts applied:  426
Mixed integer rounding cuts applied:  12
Zero-half cuts applied:  1
Gomory fractional cuts applied:  11
Warning: integer solution contains unscaled infeasibilities.

Root node processing (before b&c):
  Real time             =    0.06 sec. (87.33 ticks)
Sequential b&c:
  Real time             =   99.94 sec. (115761.56 ticks)
                          ------------
Total (root+branch&cut) =  100.00 sec. (115848.89 ticks)

Solution pool: 27 solutions saved.

Maximum unscaled integer infeasibility = 1.40313e-05.
MIP - Time limit exceeded, integer feasible:  Objective =  1.3332864000e+07
Current MIP best bound =  1.3163658000e+07 (gap = 169206, 1.27%)
Solution time =  100.00 sec.  Iterations = 1602987  Nodes = 55477 (34346)
Deterministic time = 115848.90 ticks  (1158.48 ticks/sec)


Incumbent solution written to file '/tmp/tmpHvqMUg.cplex.sol'.
